16
615938 1188681
74618 160632
109110 225764
821054 1762724
458488 840566
821360 1501156
609945 1265916
361196 672380
633910 1336652
133731 289808
619385 1252296
11437 20947
232580 472835
987645 1828177
354237 759603
676225 1253380
3760429